p edge 546
e 0 231
e 0 526
e 1 2
e 1 138
e 1 150
e 1 408
e 2 149
e 2 407
e 2 408
e 3 4
e 3 168
e 3 242
e 4 15
e 4 16
e 4 22
e 4 24
e 4 28
e 4 125
e 4 168
e 4 242
e 4 243
e 4 479
e 5 6
e 5 7
e 5 8
e 5 329
e 5 362
e 5 378
e 6 75
e 6 82
e 6 328
e 6 329
e 6 364
e 7 8
e 7 305
e 7 328
e 7 329
e 7 340
e 7 341
e 7 545
e 8 347
e 8 378
e 9 11
e 9 19
e 9 55
e 9 57
e 9 61
e 9 62
e 9 145
e 9 516
e 9 521
e 10 14
e 10 18
e 10 21
e 10 26
e 10 59
e 10 130
e 10 489
e 11 19
e 12 15
e 12 22
e 12 24
e 12 55
e 12 56
e 12 58
e 12 530
e 13 17
e 13 20
e 13 21
e 13 59
e 14 21
e 14 57
e 14 61
e 14 62
e 14 148
e 14 489
e 15 16
e 15 18
e 15 22
e 15 26
e 15 28
e 15 56
e 15 60
e 16 22
e 17 20
e 17 23
e 17 58
e 17 59
e 17 530
e 18 26
e 18 59
e 18 60
e 19 24
e 19 52
e 19 55
e 19 521
e 20 21
e 20 23
e 20 61
e 21 59
e 22 24
e 23 61
e 23 530
e 24 52
e 24 55
e 24 479
e 25 26
e 25 27
e 25 28
e 25 29
e 25 125
e 25 130
e 25 131
e 25 303
e 25 544
e 26 27
e 26 28
e 26 29
e 26 130
e 27 28
e 27 29
e 28 125
e 30 76
e 30 78
e 30 79
e 30 81
e 30 136
e 30 137
e 30 269
e 31 32
e 31 492
e 32 396
e 32 483
e 33 396
e 33 470
e 33 491
e 33 492
e 34 36
e 34 40
e 34 85
e 34 155
e 34 205
e 34 206
e 34 340
e 35 247
e 35 405
e 35 470
e 35 483
e 36 40
e 36 85
e 36 86
e 36 149
e 36 206
e 36 395
e 36 407
e 37 39
e 37 274
e 37 486
e 38 275
e 38 416
e 38 484
e 38 485
e 39 274
e 39 275
e 39 485
e 39 486
e 40 206
e 41 292
e 41 301
e 41 302
e 41 347
e 41 362
e 42 47
e 42 50
e 42 494
e 42 521
e 43 143
e 43 227
e 43 228
e 43 333
e 43 336
e 43 349
e 43 488
e 44 46
e 44 47
e 44 51
e 44 53
e 44 493
e 45 46
e 45 51
e 45 53
e 45 232
e 45 235
e 45 517
e 45 519
e 46 50
e 46 51
e 46 127
e 46 493
e 46 517
e 46 518
e 47 48
e 47 50
e 47 53
e 47 127
e 47 493
e 47 494
e 48 53
e 48 54
e 48 494
e 48 521
e 49 52
e 49 235
e 49 520
e 50 127
e 50 516
e 50 518
e 50 521
e 51 53
e 52 54
e 52 235
e 52 479
e 52 482
e 52 520
e 52 521
e 53 54
e 53 519
e 54 519
e 54 520
e 54 521
e 55 61
e 55 530
e 56 58
e 56 59
e 56 60
e 57 62
e 58 59
e 58 530
e 59 60
e 61 530
e 62 145
e 62 148
e 63 64
e 63 156
e 63 202
e 63 289
e 63 331
e 64 152
e 64 156
e 64 289
e 65 67
e 65 262
e 65 266
e 65 438
e 65 449
e 65 450
e 65 453
e 65 468
e 66 67
e 66 69
e 66 70
e 66 438
e 67 70
e 67 438
e 67 468
e 68 69
e 68 200
e 68 439
e 68 453
e 69 70
e 69 103
e 69 104
e 69 331
e 69 438
e 69 439
e 70 268
e 70 330
e 70 331
e 70 468
e 70 532
e 71 72
e 71 73
e 71 313
e 71 314
e 72 73
e 72 317
e 73 74
e 73 314
e 73 317
e 74 316
e 74 318
e 75 77
e 75 82
e 75 136
e 75 364
e 76 78
e 76 80
e 76 82
e 76 137
e 76 190
e 76 199
e 77 79
e 77 136
e 77 269
e 77 363
e 77 364
e 77 459
e 77 463
e 77 498
e 78 79
e 78 83
e 78 190
e 78 453
e 78 460
e 78 467
e 79 81
e 79 83
e 79 269
e 79 459
e 80 82
e 80 199
e 80 377
e 81 269
e 82 137
e 82 328
e 82 377
e 83 459
e 83 460
e 84 154
e 84 184
e 84 194
e 84 195
e 84 201
e 85 86
e 85 125
e 85 304
e 85 340
e 86 125
e 86 311
e 86 395
e 86 404
e 87 88
e 87 264
e 87 268
e 87 468
e 88 264
e 88 268
e 88 535
e 88 539
e 88 541
e 89 254
e 89 255
e 89 256
e 89 258
e 89 259
e 89 419
e 89 423
e 90 157
e 90 161
e 90 251
e 90 257
e 90 421
e 90 533
e 90 534
e 91 251
e 91 253
e 91 256
e 91 257
e 91 258
e 91 259
e 91 426
e 92 93
e 92 431
e 92 432
e 92 444
e 92 445
e 93 159
e 93 167
e 93 253
e 93 420
e 93 428
e 93 429
e 93 430
e 93 431
e 93 444
e 94 96
e 94 101
e 94 297
e 95 96
e 95 98
e 95 313
e 96 98
e 96 99
e 96 101
e 96 124
e 97 100
e 97 124
e 97 299
e 97 506
e 98 99
e 98 100
e 99 100
e 99 124
e 100 124
e 100 506
e 100 509
e 101 124
e 101 297
e 102 107
e 102 150
e 102 174
e 102 178
e 102 284
e 102 288
e 103 104
e 103 106
e 103 153
e 103 177
e 103 186
e 103 202
e 103 331
e 104 144
e 104 153
e 104 175
e 104 200
e 105 106
e 105 154
e 105 179
e 105 193
e 105 201
e 106 179
e 106 186
e 106 193
e 106 202
e 107 174
e 107 178
e 107 181
e 108 109
e 108 152
e 108 156
e 108 189
e 108 192
e 108 197
e 108 204
e 108 288
e 109 152
e 109 288
e 110 286
e 110 412
e 110 413
e 110 414
e 111 141
e 111 142
e 111 143
e 111 298
e 111 299
e 111 300
e 111 441
e 112 113
e 112 242
e 112 311
e 112 358
e 112 374
e 113 168
e 113 170
e 113 242
e 114 116
e 114 437
e 115 436
e 115 437
e 116 117
e 116 437
e 116 452
e 116 542
e 117 435
e 117 437
e 117 451
e 117 452
e 118 213
e 118 221
e 118 435
e 118 436
e 118 448
e 119 129
e 119 272
e 119 273
e 119 536
e 120 129
e 120 270
e 120 271
e 120 272
e 121 272
e 121 281
e 121 495
e 122 128
e 122 279
e 122 495
e 123 282
e 123 463
e 124 299
e 125 126
e 125 140
e 125 243
e 125 303
e 125 304
e 125 311
e 127 493
e 128 270
e 129 272
e 130 131
e 130 132
e 130 133
e 130 134
e 130 135
e 130 489
e 131 133
e 131 135
e 131 353
e 131 544
e 132 133
e 132 134
e 132 135
e 133 135
e 133 353
e 133 489
e 134 135
e 136 137
e 136 269
e 138 139
e 138 150
e 138 284
e 138 287
e 138 408
e 138 500
e 138 504
e 139 500
e 139 501
e 139 502
e 139 503
e 139 504
e 141 142
e 141 143
e 141 227
e 141 349
e 141 440
e 141 442
e 142 442
e 143 227
e 143 299
e 143 333
e 143 506
e 143 508
e 143 511
e 144 153
e 144 175
e 144 198
e 144 226
e 145 147
e 145 148
e 145 516
e 145 518
e 146 147
e 146 148
e 146 335
e 146 336
e 146 488
e 147 148
e 147 309
e 147 335
e 147 517
e 147 518
e 148 488
e 148 489
e 149 150
e 149 174
e 149 205
e 149 206
e 149 407
e 150 174
e 150 284
e 151 154
e 151 171
e 151 179
e 151 197
e 151 202
e 152 156
e 152 412
e 153 177
e 153 226
e 154 171
e 154 178
e 154 179
e 154 184
e 154 189
e 154 197
e 154 201
e 155 172
e 155 199
e 155 205
e 155 340
e 155 341
e 155 342
e 155 433
e 156 185
e 156 202
e 156 204
e 157 158
e 157 161
e 157 162
e 157 164
e 157 165
e 157 534
e 158 164
e 158 165
e 158 167
e 159 160
e 159 167
e 160 163
e 160 166
e 160 428
e 161 164
e 161 167
e 161 251
e 161 253
e 162 165
e 162 534
e 162 535
e 162 541
e 163 166
e 163 428
e 164 167
e 166 167
e 167 253
e 168 170
e 168 242
e 168 479
e 169 170
e 169 478
e 170 478
e 170 479
e 171 197
e 172 174
e 172 181
e 172 191
e 172 205
e 172 433
e 173 180
e 173 183
e 173 191
e 173 198
e 173 207
e 173 208
e 173 209
e 173 226
e 174 181
e 174 205
e 175 188
e 175 198
e 175 199
e 175 200
e 176 182
e 176 186
e 176 193
e 176 195
e 176 196
e 176 201
e 177 182
e 177 186
e 177 226
e 178 181
e 178 184
e 178 189
e 178 192
e 178 288
e 179 202
e 180 188
e 180 191
e 180 198
e 180 199
e 180 433
e 181 184
e 181 187
e 181 191
e 182 186
e 182 196
e 182 207
e 182 226
e 183 187
e 183 191
e 183 194
e 183 196
e 183 207
e 184 187
e 184 194
e 185 202
e 185 203
e 185 204
e 186 193
e 187 191
e 187 194
e 188 198
e 188 199
e 189 192
e 189 197
e 190 199
e 190 200
e 190 453
e 191 433
e 192 288
e 193 201
e 194 195
e 194 196
e 195 196
e 195 201
e 196 207
e 197 202
e 197 203
e 197 204
e 198 226
e 199 200
e 199 342
e 199 377
e 199 433
e 200 453
e 202 203
e 202 331
e 203 204
e 205 206
e 207 208
e 207 209
e 207 226
e 208 209
e 209 226
e 210 212
e 210 213
e 210 214
e 210 215
e 210 220
e 211 218
e 211 223
e 212 213
e 212 216
e 212 217
e 212 220
e 212 224
e 213 214
e 213 217
e 213 221
e 213 436
e 214 215
e 214 219
e 214 221
e 214 225
e 215 220
e 215 224
e 215 225
e 216 217
e 216 218
e 216 223
e 216 224
e 217 223
e 218 223
e 218 224
e 219 221
e 219 222
e 219 225
e 219 496
e 220 224
e 221 448
e 221 456
e 221 496
e 222 224
e 222 225
e 224 225
e 227 228
e 227 349
e 228 349
e 229 231
e 229 234
e 229 240
e 229 306
e 229 522
e 229 525
e 230 232
e 230 235
e 230 237
e 230 238
e 230 522
e 230 523
e 231 234
e 231 239
e 231 525
e 231 526
e 232 233
e 232 235
e 232 238
e 232 241
e 233 236
e 233 309
e 233 517
e 234 236
e 234 239
e 234 307
e 234 308
e 235 482
e 235 519
e 235 520
e 236 239
e 236 241
e 236 309
e 236 526
e 237 238
e 237 241
e 237 310
e 237 523
e 237 526
e 237 529
e 238 241
e 240 306
e 240 334
e 240 401
e 240 522
e 241 526
e 242 243
e 242 311
e 243 311
e 244 247
e 244 260
e 244 483
e 245 246
e 245 249
e 245 409
e 245 410
e 245 482
e 246 247
e 246 409
e 246 471
e 246 476
e 246 482
e 247 248
e 247 260
e 247 405
e 247 409
e 247 471
e 248 249
e 248 260
e 248 261
e 248 409
e 248 410
e 249 261
e 249 410
e 250 252
e 250 255
e 250 421
e 251 253
e 251 257
e 252 254
e 252 255
e 252 283
e 252 411
e 252 421
e 252 504
e 253 426
e 253 443
e 253 444
e 254 255
e 254 504
e 255 421
e 256 257
e 256 259
e 256 421
e 257 421
e 258 259
e 258 419
e 258 426
e 262 263
e 262 266
e 262 450
e 263 264
e 263 265
e 263 266
e 263 267
e 263 450
e 263 452
e 263 538
e 263 542
e 263 543
e 264 265
e 264 267
e 264 468
e 264 539
e 265 266
e 265 468
e 266 468
e 267 538
e 267 539
e 267 540
e 268 468
e 268 532
e 268 535
e 270 271
e 270 279
e 271 272
e 271 279
e 271 281
e 272 276
e 272 281
e 272 495
e 272 536
e 273 390
e 273 536
e 275 484
e 275 485
e 276 281
e 277 416
e 277 417
e 277 434
e 278 280
e 278 417
e 278 434
e 278 469
e 279 281
e 279 495
e 280 417
e 280 418
e 280 469
e 280 472
e 281 495
e 282 456
e 282 458
e 282 463
e 283 285
e 283 287
e 283 411
e 283 413
e 283 414
e 283 504
e 284 285
e 284 287
e 284 288
e 285 286
e 285 287
e 285 288
e 286 288
e 286 412
e 286 413
e 288 412
e 289 330
e 289 331
e 289 411
e 289 412
e 289 421
e 289 533
e 290 526
e 290 527
e 290 528
e 290 529
e 291 292
e 291 293
e 291 362
e 291 363
e 291 364
e 292 293
e 292 295
e 292 296
e 292 302
e 292 362
e 293 365
e 294 295
e 294 343
e 294 344
e 294 363
e 294 365
e 295 296
e 295 343
e 295 365
e 297 298
e 297 299
e 298 299
e 298 300
e 299 300
e 301 302
e 301 347
e 301 351
e 301 397
e 302 397
e 302 398
e 303 304
e 303 305
e 303 544
e 303 545
e 304 305
e 304 340
e 305 340
e 305 545
e 306 307
e 306 334
e 307 308
e 307 334
e 308 309
e 308 334
e 309 332
e 309 335
e 310 523
e 310 524
e 310 527
e 310 529
e 311 374
e 311 404
e 311 513
e 312 361
e 312 366
e 312 367
e 312 368
e 312 371
e 312 375
e 312 376
e 312 379
e 312 386
e 313 314
e 315 319
e 315 320
e 315 321
e 315 326
e 315 383
e 316 317
e 316 318
e 317 318
e 317 322
e 317 323
e 317 388
e 318 388
e 318 391
e 319 320
e 319 324
e 319 326
e 319 536
e 320 323
e 320 324
e 320 327
e 320 383
e 320 384
e 321 383
e 321 385
e 321 389
e 321 390
e 321 392
e 322 323
e 322 327
e 322 339
e 323 327
e 323 384
e 323 388
e 324 325
e 324 327
e 324 339
e 324 495
e 324 536
e 325 327
e 325 339
e 326 390
e 326 536
e 327 339
e 328 329
e 328 341
e 328 377
e 330 331
e 330 532
e 330 533
e 332 333
e 332 334
e 332 335
e 332 337
e 333 335
e 333 336
e 333 400
e 333 403
e 334 337
e 334 400
e 334 401
e 335 336
e 336 488
e 337 400
e 338 387
e 338 389
e 338 390
e 338 393
e 338 394
e 339 495
e 340 341
e 341 342
e 341 377
e 342 377
e 343 344
e 344 345
e 344 363
e 344 499
e 345 499
e 346 347
e 346 351
e 346 353
e 346 544
e 346 545
e 347 351
e 347 362
e 347 378
e 347 545
e 348 349
e 348 350
e 348 351
e 348 353
e 348 354
e 349 350
e 349 351
e 349 354
e 349 397
e 349 440
e 349 488
e 349 490
e 350 352
e 350 353
e 350 354
e 350 490
e 351 353
e 351 397
e 352 354
e 353 489
e 353 490
e 353 544
e 355 359
e 355 370
e 355 375
e 355 382
e 355 386
e 356 368
e 356 369
e 356 514
e 357 360
e 357 367
e 357 381
e 357 512
e 357 514
e 357 515
e 358 359
e 358 370
e 358 373
e 358 374
e 359 370
e 359 371
e 359 374
e 359 375
e 360 367
e 360 376
e 360 514
e 361 366
e 361 372
e 361 379
e 361 380
e 362 364
e 362 378
e 363 364
e 363 365
e 363 498
e 363 499
e 366 371
e 366 372
e 367 376
e 367 379
e 367 381
e 368 376
e 368 514
e 369 395
e 369 407
e 369 514
e 369 515
e 370 373
e 370 382
e 371 372
e 371 374
e 371 375
e 372 374
e 372 380
e 374 379
e 374 380
e 374 512
e 374 513
e 375 386
e 376 514
e 379 380
e 379 381
e 379 512
e 381 512
e 382 386
e 383 384
e 383 385
e 384 385
e 385 388
e 385 392
e 387 391
e 387 392
e 387 393
e 388 391
e 388 392
e 389 390
e 389 392
e 390 536
e 391 392
e 391 393
e 393 394
e 395 404
e 395 407
e 395 513
e 395 515
e 396 470
e 396 483
e 396 492
e 397 398
e 397 440
e 398 440
e 399 401
e 399 402
e 400 401
e 400 402
e 400 403
e 401 402
e 404 513
e 405 470
e 405 471
e 406 407
e 406 408
e 407 408
e 408 500
e 409 410
e 411 412
e 411 414
e 412 414
e 413 414
e 415 416
e 415 484
e 416 434
e 416 484
e 417 418
e 417 434
e 419 423
e 419 426
e 419 443
e 419 445
e 420 427
e 420 428
e 420 429
e 420 531
e 421 533
e 422 424
e 422 425
e 422 431
e 422 446
e 423 424
e 423 446
e 424 432
e 424 445
e 424 446
e 425 427
e 425 431
e 425 446
e 425 531
e 426 443
e 427 428
e 427 531
e 429 430
e 429 531
e 430 431
e 430 531
e 431 432
e 432 445
e 435 436
e 435 437
e 435 448
e 435 451
e 436 437
e 438 439
e 438 453
e 439 453
e 440 442
e 441 442
e 443 444
e 443 445
e 444 445
e 447 449
e 447 450
e 447 451
e 447 452
e 448 449
e 448 451
e 448 456
e 448 464
e 449 450
e 449 451
e 449 453
e 449 464
e 450 452
e 451 452
e 452 542
e 453 464
e 453 467
e 454 455
e 454 461
e 454 464
e 454 465
e 454 467
e 455 456
e 455 458
e 455 461
e 455 464
e 456 458
e 456 463
e 456 464
e 456 496
e 457 458
e 457 459
e 457 462
e 457 465
e 457 466
e 458 459
e 458 461
e 458 463
e 458 466
e 459 460
e 459 462
e 459 463
e 460 462
e 460 467
e 461 465
e 461 466
e 462 465
e 462 467
e 463 496
e 463 497
e 463 498
e 464 467
e 465 466
e 465 467
e 469 471
e 469 472
e 469 476
e 470 471
e 470 473
e 470 474
e 470 475
e 470 483
e 470 491
e 471 472
e 471 474
e 471 476
e 472 473
e 472 474
e 472 475
e 472 477
e 473 475
e 473 491
e 474 475
e 477 491
e 477 492
e 478 479
e 478 480
e 478 481
e 479 481
e 479 482
e 480 481
e 480 482
e 481 482
e 487 488
e 487 489
e 488 489
e 488 490
e 489 490
e 491 492
e 494 521
e 495 536
e 496 497
e 496 499
e 497 498
e 497 499
e 498 499
e 500 501
e 502 503
e 503 504
e 505 508
e 505 511
e 506 507
e 506 508
e 506 509
e 507 508
e 507 509
e 507 510
e 508 511
e 509 510
e 512 513
e 512 515
e 513 515
e 514 515
e 516 518
e 516 521
e 517 518
e 519 520
e 522 523
e 522 524
e 522 525
e 524 525
e 524 527
e 524 528
e 525 526
e 525 528
e 526 528
e 526 529
e 527 528
e 527 529
e 532 533
e 532 534
e 532 535
e 533 534
e 534 535
e 535 541
e 537 538
e 537 540
e 538 540
e 538 543
e 539 540
e 539 541
e 542 543
e 544 545
c k 2
